clingo version 5.7.1
Reading from Calendario.cl
Solving...
Answer: 1
partita(inter,milan,sansiro,17) partita(inter,juventus,sansiro,14) partita(inter,atalanta,sansiro,19) partita(inter,bologna,sansiro,1) partita(inter,roma,sansiro,10) partita(inter,lazio,sansiro,21) partita(inter,fiorentina,sansiro,3) partita(inter,torino,sansiro,15) partita(inter,napoli,sansiro,24) partita(inter,genoa,sansiro,7) partita(inter,monza,sansiro,11) partita(inter,verona,sansiro,5) partita(inter,lecce,sansiro,22) partita(inter,udinese,sansiro,26) partita(inter,cagliari,sansiro,29) partita(milan,inter,sansiro,13) partita(milan,juventus,sansiro,8) partita(milan,atalanta,sansiro,18) partita(milan,bologna,sansiro,27) partita(milan,roma,sansiro,20) partita(milan,lazio,sansiro,4) partita(milan,fiorentina,sansiro,12) partita(milan,torino,sansiro,28) partita(milan,napoli,sansiro,9) partita(milan,genoa,sansiro,16) partita(milan,monza,sansiro,23) partita(milan,verona,sansiro,25) partita(milan,lecce,sansiro,30) partita(milan,udinese,sansiro,2) partita(milan,cagliari,sansiro,6) partita(juventus,inter,allianz,30) partita(juventus,milan,allianz,22) partita(juventus,atalanta,allianz,27) partita(juventus,bologna,allianz,24) partita(juventus,roma,allianz,13) partita(juventus,lazio,allianz,25) partita(juventus,fiorentina,allianz,9) partita(juventus,torino,allianz,2) partita(juventus,napoli,allianz,17) partita(juventus,genoa,allianz,15) partita(juventus,monza,allianz,20) partita(juventus,verona,allianz,10) partita(juventus,lecce,allianz,6) partita(juventus,udinese,allianz,28) partita(juventus,cagliari,allianz,5) partita(bologna,inter,dallara,23) partita(bologna,milan,dallara,10) partita(bologna,juventus,dallara,11) partita(bologna,atalanta,dallara,6) partita(bologna,roma,dallara,17) partita(bologna,lazio,dallara,14) partita(bologna,fiorentina,dallara,5) partita(bologna,torino,dallara,18) partita(bologna,napoli,dallara,26) partita(bologna,genoa,dallara,3) partita(bologna,monza,dallara,25) partita(bologna,verona,dallara,29) partita(bologna,lecce,dallara,21) partita(bologna,udinese,dallara,20) partita(bologna,cagliari,dallara,8) partita(atalanta,inter,gewiss,8) partita(atalanta,milan,gewiss,14) partita(atalanta,juventus,gewiss,4) partita(atalanta,bologna,gewiss,28) partita(atalanta,roma,gewiss,24) partita(atalanta,lazio,gewiss,23) partita(atalanta,fiorentina,gewiss,10) partita(atalanta,torino,gewiss,12) partita(atalanta,napoli,gewiss,5) partita(atalanta,genoa,gewiss,20) partita(atalanta,monza,gewiss,17) partita(atalanta,verona,gewiss,2) partita(atalanta,lecce,gewiss,1) partita(atalanta,udinese,gewiss,7) partita(atalanta,cagliari,gewiss,26) partita(roma,inter,olimpicoRoma,18) partita(roma,milan,olimpicoRoma,7) partita(roma,juventus,olimpicoRoma,29) partita(roma,atalanta,olimpicoRoma,11) partita(roma,bologna,olimpicoRoma,4) partita(roma,lazio,olimpicoRoma,16) partita(roma,fiorentina,olimpicoRoma,25) partita(roma,torino,olimpicoRoma,8) partita(roma,napoli,olimpicoRoma,21) partita(roma,genoa,olimpicoRoma,23) partita(roma,monza,olimpicoRoma,30) partita(roma,verona,olimpicoRoma,14) partita(roma,lecce,olimpicoRoma,27) partita(roma,udinese,olimpicoRoma,1) partita(roma,cagliari,olimpicoRoma,2) partita(lazio,inter,olimpicoRoma,9) partita(lazio,milan,olimpicoRoma,26) partita(lazio,juventus,olimpicoRoma,12) partita(lazio,atalanta,olimpicoRoma,15) partita(lazio,bologna,olimpicoRoma,22) partita(lazio,roma,olimpicoRoma,3) partita(lazio,fiorentina,olimpicoRoma,20) partita(lazio,torino,olimpicoRoma,19) partita(lazio,napoli,olimpicoRoma,28) partita(lazio,genoa,olimpicoRoma,5) partita(lazio,monza,olimpicoRoma,6) partita(lazio,verona,olimpicoRoma,17) partita(lazio,lecce,olimpicoRoma,24) partita(lazio,udinese,olimpicoRoma,13) partita(lazio,cagliari,olimpicoRoma,10) partita(torino,inter,olimpicoTorino,20) partita(torino,milan,olimpicoTorino,5) partita(torino,juventus,olimpicoTorino,16) partita(torino,atalanta,olimpicoTorino,30) partita(torino,bologna,olimpicoTorino,7) partita(torino,roma,olimpicoTorino,26) partita(torino,lazio,olimpicoTorino,1) partita(torino,fiorentina,olimpicoTorino,24) partita(torino,napoli,olimpicoTorino,10) partita(torino,genoa,olimpicoTorino,29) partita(torino,monza,olimpicoTorino,3) partita(torino,verona,olimpicoTorino,13) partita(torino,lecce,olimpicoTorino,14) partita(torino,udinese,olimpicoTorino,22) partita(torino,cagliari,olimpicoTorino,17) partita(fiorentina,inter,franchi,27) partita(fiorentina,milan,franchi,19) partita(fiorentina,juventus,franchi,26) partita(fiorentina,atalanta,franchi,22) partita(fiorentina,bologna,franchi,30) partita(fiorentina,roma,franchi,6) partita(fiorentina,lazio,franchi,2) partita(fiorentina,torino,franchi,4) partita(fiorentina,napoli,franchi,14) partita(fiorentina,genoa,franchi,1) partita(fiorentina,monza,franchi,8) partita(fiorentina,verona,franchi,23) partita(fiorentina,lecce,franchi,17) partita(fiorentina,udinese,franchi,11) partita(fiorentina,cagliari,franchi,13) partita(napoli,inter,maradona,6) partita(napoli,milan,maradona,29) partita(napoli,juventus,maradona,1) partita(napoli,atalanta,maradona,16) partita(napoli,bologna,maradona,12) partita(napoli,roma,maradona,15) partita(napoli,lazio,maradona,8) partita(napoli,fiorentina,maradona,18) partita(napoli,torino,maradona,23) partita(napoli,genoa,maradona,27) partita(napoli,monza,maradona,22) partita(napoli,verona,maradona,20) partita(napoli,lecce,maradona,11) partita(napoli,udinese,maradona,4) partita(napoli,cagliari,maradona,25) partita(genoa,inter,marassi,25) partita(genoa,milan,marassi,11) partita(genoa,juventus,marassi,21) partita(genoa,atalanta,marassi,13) partita(genoa,bologna,marassi,19) partita(genoa,roma,marassi,9) partita(genoa,lazio,marassi,30) partita(genoa,fiorentina,marassi,28) partita(genoa,torino,marassi,6) partita(genoa,napoli,marassi,2) partita(genoa,monza,marassi,14) partita(genoa,verona,marassi,8) partita(genoa,lecce,marassi,4) partita(genoa,udinese,marassi,17) partita(genoa,cagliari,marassi,22) partita(monza,inter,upower,16) partita(monza,milan,upower,1) partita(monza,juventus,upower,7) partita(monza,atalanta,upower,9) partita(monza,bologna,upower,2) partita(monza,roma,upower,12) partita(monza,lazio,upower,18) partita(monza,fiorentina,upower,29) partita(monza,torino,upower,21) partita(monza,napoli,upower,13) partita(monza,genoa,upower,24) partita(monza,verona,upower,26) partita(monza,lecce,upower,28) partita(monza,udinese,upower,5) partita(monza,cagliari,upower,15) partita(verona,inter,bentegodi,28) partita(verona,milan,bentegodi,15) partita(verona,juventus,bentegodi,19) partita(verona,atalanta,bentegodi,21) partita(verona,bologna,bentegodi,9) partita(verona,roma,bentegodi,22) partita(verona,lazio,bentegodi,11) partita(verona,fiorentina,bentegodi,7) partita(verona,torino,bentegodi,27) partita(verona,napoli,bentegodi,3) partita(verona,genoa,bentegodi,18) partita(verona,monza,bentegodi,4) partita(verona,lecce,bentegodi,12) partita(verona,udinese,bentegodi,24) partita(verona,cagliari,bentegodi,1) partita(lecce,inter,viadelmare,2) partita(lecce,milan,viadelmare,3) partita(lecce,juventus,viadelmare,23) partita(lecce,atalanta,viadelmare,29) partita(lecce,bologna,viadelmare,13) partita(lecce,roma,viadelmare,5) partita(lecce,lazio,viadelmare,7) partita(lecce,fiorentina,viadelmare,15) partita(lecce,torino,viadelmare,25) partita(lecce,napoli,viadelmare,19) partita(lecce,genoa,viadelmare,26) partita(lecce,monza,viadelmare,10) partita(lecce,verona,viadelmare,16) partita(lecce,udinese,viadelmare,8) partita(lecce,cagliari,viadelmare,20) partita(udinese,inter,friuli,12) partita(udinese,milan,friuli,21) partita(udinese,juventus,friuli,3) partita(udinese,atalanta,friuli,25) partita(udinese,bologna,friuli,15) partita(udinese,roma,friuli,19) partita(udinese,lazio,friuli,29) partita(udinese,fiorentina,friuli,16) partita(udinese,torino,friuli,9) partita(udinese,napoli,friuli,30) partita(udinese,genoa,friuli,10) partita(udinese,monza,friuli,27) partita(udinese,verona,friuli,6) partita(udinese,lecce,friuli,18) partita(udinese,cagliari,friuli,23) partita(cagliari,inter,unipol,4) partita(cagliari,milan,unipol,24) partita(cagliari,juventus,unipol,18) partita(cagliari,atalanta,unipol,3) partita(cagliari,bologna,unipol,16) partita(cagliari,roma,unipol,28) partita(cagliari,lazio,unipol,27) partita(cagliari,fiorentina,unipol,21) partita(cagliari,torino,unipol,11) partita(cagliari,napoli,unipol,7) partita(cagliari,genoa,unipol,12) partita(cagliari,monza,unipol,19) partita(cagliari,verona,unipol,30) partita(cagliari,lecce,unipol,9) partita(cagliari,udinese,unipol,14)
SATISFIABLE

Models       : 1+
Calls        : 1
Time         : 2.053s (Solving: 1.87s 1st Model: 1.87s Unsat: 0.00s)
CPU Time     : 2.053s
